Route #1: 1 6 37 41 17 11 18 39 3 35 44 1
Route #2: 1 34 20 4 49 36 2 21 1
Route #3: 1 19 30 40 14 1
Route #4: 1 12 5 43 15 27 29 1
Route #5: 1 22 45 10 50 31 23 25 46 1
Route #6: 1 24 51 16 48 26 47 8 7 1
Route #7: 1 42 28 32 38 33 13 9 1
cost 1131.5141934866817
